# Solution for model qis_1000_800_785
# Objective value = 3.0182581220022684e+02
x[0] 1
x[1] 1
x[2] 1
x[3] 0
x[4] 1
x[5] 1
x[6] 1
x[7] 0
x[8] 0
x[9] 0
x[10] 0
x[11] 0
x[12] 1
x[13] 1
x[14] 1
x[15] 1
x[16] 0
x[17] 0
x[18] 0
x[19] 0
x[20] 0
x[21] 1
x[22] 0
x[23] 1
x[24] 1
x[25] 0
x[26] 0
x[27] 1
x[28] 0
x[29] 1
x[30] 1
x[31] 0
x[32] 0
x[33] 1
x[34] 0
x[35] 0
x[36] 0
x[37] 0
x[38] 1
x[39] 0
x[40] 0
x[41] 1
x[42] 0
x[43] 0
x[44] 0
x[45] 0
x[46] 0
x[47] 1
x[48] 1
x[49] 1
x[50] 0
x[51] 0
x[52] 0
x[53] 1
x[54] 0
x[55] 0
x[56] 1
x[57] 0
x[58] 1
x[59] 1
x[60] 1
x[61] 1
x[62] 0
x[63] 1
x[64] 1
x[65] 1
x[66] 0
x[67] 1
x[68] 0
x[69] 0
x[70] 1
x[71] 0
x[72] 1
x[73] 1
x[74] 1
x[75] 1
x[76] 0
x[77] 1
x[78] 1
x[79] 0
x[80] 1
x[81] 1
x[82] 1
x[83] 0
x[84] 1
x[85] 0
x[86] 0
x[87] 0
x[88] 1
x[89] 0
x[90] 0
x[91] 1
x[92] 0
x[93] 1
x[94] 1
x[95] 1
x[96] 1
x[97] 0
x[98] 0
x[99] 1
x[100] 0
x[101] 0
x[102] 0
x[103] 0
x[104] 1
x[105] 0
x[106] 0
x[107] 1
x[108] 0
x[109] 1
x[110] 0
x[111] 1
x[112] 0
x[113] 1
x[114] 1
x[115] 0
x[116] 0
x[117] 1
x[118] 1
x[119] 1
x[120] 0
x[121] 0
x[122] 0
x[123] 0
x[124] 0
x[125] 0
x[126] 1
x[127] 1
x[128] 0
x[129] 0
x[130] 1
x[131] 1
x[132] 0
x[133] 1
x[134] 1
x[135] 0
x[136] 1
x[137] 0
x[138] 0
x[139] 0
x[140] 1
x[141] 1
x[142] 0
x[143] 0
x[144] 1
x[145] 1
x[146] 0
x[147] 0
x[148] 1
x[149] 1
x[150] 0
x[151] 0
x[152] 0
x[153] 1
x[154] 0
x[155] 0
x[156] 0
x[157] 1
x[158] 0
x[159] 0
x[160] 0
x[161] 0
x[162] 0
x[163] 1
x[164] 1
x[165] 0
x[166] 1
x[167] 1
x[168] 1
x[169] 0
x[170] 0
x[171] 0
x[172] 1
x[173] 1
x[174] 1
x[175] 1
x[176] 1
x[177] 0
x[178] 0
x[179] 0
x[180] 1
x[181] 0
x[182] 0
x[183] 0
x[184] 0
x[185] 0
x[186] 1
x[187] 0
x[188] 0
x[189] 0
x[190] 1
x[191] 0
x[192] 1
x[193] 0
x[194] 0
x[195] 1
x[196] 1
x[197] 0
x[198] 0
x[199] 0
x[200] 0
x[201] 1
x[202] 0
x[203] 0
x[204] 0
x[205] 1
x[206] 0
x[207] 0
x[208] 1
x[209] 1
x[210] 0
x[211] 1
x[212] 0
x[213] 1
x[214] 0
x[215] 1
x[216] 1
x[217] 1
x[218] 0
x[219] 0
x[220] 1
x[221] 1
x[222] 0
x[223] 1
x[224] 0
x[225] 0
x[226] 1
x[227] 1
x[228] 1
x[229] 1
x[230] 0
x[231] 0
x[232] 1
x[233] 1
x[234] 0
x[235] 0
x[236] 0
x[237] 1
x[238] 0
x[239] 1
x[240] 0
x[241] 1
x[242] 0
x[243] 0
x[244] 1
x[245] 0
x[246] 0
x[247] 1
x[248] 0
x[249] 0
x[250] 1
x[251] 0
x[252] 0
x[253] 1
x[254] 1
x[255] 0
x[256] 1
x[257] 0
x[258] 1
x[259] 0
x[260] 1
x[261] 1
x[262] 0
x[263] 0
x[264] 0
x[265] 1
x[266] 0
x[267] 0
x[268] 0
x[269] 1
x[270] 0
x[271] 0
x[272] 0
x[273] 0
x[274] 0
x[275] 1
x[276] 0
x[277] 0
x[278] 0
x[279] 0
x[280] 0
x[281] 1
x[282] 0
x[283] 1
x[284] 0
x[285] 0
x[286] 1
x[287] 0
x[288] 0
x[289] 0
x[290] 0
x[291] 0
x[292] 1
x[293] 1
x[294] 1
x[295] 1
x[296] 0
x[297] 1
x[298] 1
x[299] 1
x[300] 1
x[301] 0
x[302] 1
x[303] 1
x[304] 1
x[305] 1
x[306] 0
x[307] 1
x[308] 1
x[309] 1
x[310] 1
x[311] 1
x[312] 1
x[313] 0
x[314] 0
x[315] 1
x[316] 1
x[317] 1
x[318] 0
x[319] 0
x[320] 1
x[321] 1
x[322] 0
x[323] 1
x[324] 0
x[325] 1
x[326] 1
x[327] 0
x[328] 1
x[329] 1
x[330] 1
x[331] 0
x[332] 0
x[333] 1
x[334] 0
x[335] 1
x[336] 1
x[337] 1
x[338] 0
x[339] 0
x[340] 1
x[341] 0
x[342] 0
x[343] 1
x[344] 0
x[345] 0
x[346] 0
x[347] 1
x[348] 0
x[349] 0
x[350] 1
x[351] 0
x[352] 1
x[353] 1
x[354] 1
x[355] 1
x[356] 1
x[357] 1
x[358] 0
x[359] 0
x[360] 1
x[361] 0
x[362] 1
x[363] 0
x[364] 1
x[365] 0
x[366] 1
x[367] 1
x[368] 1
x[369] 0
x[370] 1
x[371] 0
x[372] 0
x[373] 0
x[374] 1
x[375] 1
x[376] 1
x[377] 1
x[378] 0
x[379] 1
x[380] 1
x[381] 1
x[382] 0
x[383] 0
x[384] 1
x[385] 0
x[386] 1
x[387] 0
x[388] 0
x[389] 0
x[390] 0
x[391] 0
x[392] 1
x[393] 0
x[394] 0
x[395] 1
x[396] 0
x[397] 1
x[398] 0
x[399] 0
x[400] 1
x[401] 0
x[402] 1
x[403] 0
x[404] 1
x[405] 1
x[406] 0
x[407] 0
x[408] 1
x[409] 0
x[410] 1
x[411] 0
x[412] 0
x[413] 0
x[414] 0
x[415] 0
x[416] 0
x[417] 0
x[418] 0
x[419] 1
x[420] 0
x[421] 1
x[422] 0
x[423] 1
x[424] 0
x[425] 0
x[426] 1
x[427] 1
x[428] 0
x[429] 1
x[430] 0
x[431] 0
x[432] 8.6971616135611878e-07
x[433] 1
x[434] 1
x[435] 0
x[436] 0
x[437] 0
x[438] 0
x[439] 0
x[440] 1
x[441] 0
x[442] 1
x[443] 0
x[444] 0
x[445] 1
x[446] 0
x[447] 0
x[448] 1
x[449] 1
x[450] 1
x[451] 0
x[452] 0
x[453] 1
x[454] 0
x[455] 1
x[456] 0
x[457] 0
x[458] 1
x[459] 1
x[460] 0
x[461] 0
x[462] 0
x[463] 0
x[464] 0
x[465] 1
x[466] 0
x[467] 1
x[468] 0
x[469] 1
x[470] 1
x[471] 1
x[472] 0
x[473] 1
x[474] 1
x[475] 1
x[476] 0
x[477] 0
x[478] 1
x[479] 1
x[480] 0
x[481] 0
x[482] 1
x[483] 1
x[484] 1
x[485] 0
x[486] 1
x[487] 1
x[488] 1
x[489] 0
x[490] 0
x[491] 1
x[492] 0
x[493] 1
x[494] 0
x[495] 0
x[496] 1
x[497] 0
x[498] 1
x[499] 0
x[500] 0
x[501] 0
x[502] 1
x[503] 1
x[504] 0
x[505] 0
x[506] 1
x[507] 1
x[508] 0
x[509] 1
x[510] 1
x[511] 0
x[512] 1
x[513] 1
x[514] 1
x[515] 0
x[516] 0
x[517] 1
x[518] 0
x[519] 1
x[520] 0
x[521] 1
x[522] 0
x[523] 0
x[524] 0
x[525] 0
x[526] 1
x[527] 1
x[528] 0
x[529] 1
x[530] 1
x[531] 0
x[532] 0
x[533] 1
x[534] 0
x[535] 1
x[536] 0
x[537] 1
x[538] 1
x[539] 0
x[540] 0
x[541] 0
x[542] 1
x[543] 0
x[544] 0
x[545] 1
x[546] 0
x[547] 1
x[548] 0
x[549] 0
x[550] 1
x[551] 0
x[552] 1
x[553] 1
x[554] 1
x[555] 0
x[556] 1
x[557] 0
x[558] 1
x[559] 0
x[560] 0
x[561] 1
x[562] 0
x[563] 1
x[564] 1
x[565] 0
x[566] 1
x[567] 1
x[568] 1
x[569] 1
x[570] 1
x[571] 0
x[572] 1
x[573] 0
x[574] 1
x[575] 0
x[576] 0
x[577] 0
x[578] 1
x[579] 0
x[580] 0
x[581] 1
x[582] 1
x[583] 1
x[584] 0
x[585] 1
x[586] 1
x[587] 0
x[588] 1
x[589] 1
x[590] 1
x[591] 0
x[592] 0
x[593] 1
x[594] 0
x[595] 0
x[596] 0
x[597] 9.9999913352352277e-01
x[598] 1
x[599] 0
x[600] 0
x[601] 0
x[602] 0
x[603] 0
x[604] 0
x[605] 1
x[606] 0
x[607] 0
x[608] 1
x[609] 1
x[610] 0
x[611] 1
x[612] 1
x[613] 1
x[614] 0
x[615] 1
x[616] 0
x[617] 0
x[618] 0
x[619] 1
x[620] 1
x[621] 8.6972814786085678e-07
x[622] 1
x[623] 0
x[624] 1
x[625] 0
x[626] 1
x[627] 1
x[628] 0
x[629] 1
x[630] 1
x[631] 0
x[632] 1
x[633] 0
x[634] 1
x[635] 1
x[636] 0
x[637] 1
x[638] 1
x[639] 0
x[640] 0
x[641] 0
x[642] 1
x[643] 1
x[644] 1
x[645] 1
x[646] 0
x[647] 0
x[648] 0
x[649] 0
x[650] 0
x[651] 1
x[652] 0
x[653] 1
x[654] 0
x[655] 0
x[656] 0
x[657] 1
x[658] 0
x[659] 0
x[660] 0
x[661] 1
x[662] 0
x[663] 0
x[664] 1
x[665] 1
x[666] 1
x[667] 0
x[668] 0
x[669] 0
x[670] 0
x[671] 0
x[672] 1
x[673] 0
x[674] 0
x[675] 0
x[676] 1
x[677] 1
x[678] 1
x[679] 1
x[680] 0
x[681] 1
x[682] 0
x[683] 0
x[684] 1
x[685] 1
x[686] 1
x[687] 1
x[688] 1
x[689] 1
x[690] 1
x[691] 0
x[692] 0
x[693] 1
x[694] 1
x[695] 1
x[696] 1
x[697] 1
x[698] 1
x[699] 1
x[700] 0
x[701] 1
x[702] 1
x[703] 0
x[704] 1
x[705] 1
x[706] 1
x[707] 1
x[708] 1
x[709] 1
x[710] 1
x[711] 0
x[712] 1
x[713] 0
x[714] 1
x[715] 0
x[716] 1
x[717] 1
x[718] 1
x[719] 0
x[720] 0
x[721] 1
x[722] 0
x[723] 1
x[724] 1
x[725] 0
x[726] 1
x[727] 1
x[728] 0
x[729] 1
x[730] 1
x[731] 0
x[732] 0
x[733] 0
x[734] 0
x[735] 1
x[736] 0
x[737] 1
x[738] 1
x[739] 0
x[740] 0
x[741] 1
x[742] 1
x[743] 0
x[744] 1
x[745] 1
x[746] 0
x[747] 0
x[748] 1
x[749] 0
x[750] 0
x[751] 1
x[752] 0
x[753] 1
x[754] 1
x[755] 0
x[756] 1
x[757] 1
x[758] 0
x[759] 0
x[760] 0
x[761] 1
x[762] 1
x[763] 1
x[764] 1
x[765] 0
x[766] 0
x[767] 1
x[768] 1
x[769] 0
x[770] 0
x[771] 0
x[772] 0
x[773] 1
x[774] 0
x[775] 1
x[776] 0
x[777] 1
x[778] 0
x[779] 0
x[780] 1
x[781] 1
x[782] 0
x[783] 1
x[784] 1
x[785] 1
x[786] 0
x[787] 1
x[788] 0
x[789] 1
x[790] 1
x[791] 1
x[792] 1
x[793] 0
x[794] 1
x[795] 1
x[796] 0
x[797] 1
x[798] 1
x[799] 1
x[800] 0
x[801] 1
x[802] 1
x[803] 0
x[804] 0
x[805] 0
x[806] 0
x[807] 0
x[808] 1
x[809] 0
x[810] 1
x[811] 1
x[812] 0
x[813] 1
x[814] 1
x[815] 0
x[816] 0
x[817] 1
x[818] 1
x[819] 0
x[820] 1
x[821] 0
x[822] 1
x[823] 1
x[824] 1
x[825] 1
x[826] 0
x[827] 0
x[828] 1
x[829] 0
x[830] 1
x[831] 1
x[832] 1
x[833] 0
x[834] 0
x[835] 0
x[836] 0
x[837] 1
x[838] 1
x[839] 0
x[840] 1
x[841] 1
x[842] 1
x[843] 1
x[844] 0
x[845] 0
x[846] 1
x[847] 0
x[848] 0
x[849] 1
x[850] 0
x[851] 0
x[852] 0
x[853] 1
x[854] 0
x[855] 1
x[856] 0
x[857] 0
x[858] 1
x[859] 1
x[860] 1
x[861] 1
x[862] 0
x[863] 0
x[864] 0
x[865] 1
x[866] 1
x[867] 0
x[868] 0
x[869] 0
x[870] 1
x[871] 0
x[872] 1
x[873] 0
x[874] 0
x[875] 1
x[876] 0
x[877] 0
x[878] 0
x[879] 1
x[880] 1
x[881] 0
x[882] 0
x[883] 1
x[884] 1
x[885] 0
x[886] 0
x[887] 0
x[888] 0
x[889] 1
x[890] 0
x[891] 1
x[892] 1
x[893] 0
x[894] 1
x[895] 0
x[896] 1
x[897] 1
x[898] 0
x[899] 1
x[900] 1
x[901] 0
x[902] 0
x[903] 0
x[904] 0
x[905] 1
x[906] 0
x[907] 1
x[908] 0
x[909] 1
x[910] 1
x[911] 0
x[912] 0
x[913] 0
x[914] 0
x[915] 0
x[916] 0
x[917] 0
x[918] 0
x[919] 1
x[920] 1
x[921] 0
x[922] 0
x[923] 0
x[924] 0
x[925] 1
x[926] 1
x[927] 1
x[928] 0
x[929] 1
x[930] 0
x[931] 0
x[932] 0
x[933] 0
x[934] 0
x[935] 1
x[936] 1
x[937] 1
x[938] 0
x[939] 0
x[940] 0
x[941] 0
x[942] 1
x[943] 0
x[944] 0
x[945] 1
x[946] 0
x[947] 1
x[948] 1
x[949] 0
x[950] 0
x[951] 0
x[952] 1
x[953] 0
x[954] 1
x[955] 0
x[956] 1
x[957] 1
x[958] 1
x[959] 0
x[960] 1
x[961] 1
x[962] 1
x[963] 0
x[964] 0
x[965] 1
x[966] 0
x[967] 1
x[968] 1
x[969] 0
x[970] 0
x[971] 0
x[972] 0
x[973] 1
x[974] 1
x[975] 0
x[976] 1
x[977] 0
x[978] 0
x[979] 0
x[980] 1
x[981] 1
x[982] 1
x[983] 0
x[984] 0
x[985] 1
x[986] 0
x[987] 1
x[988] 1
x[989] 1
x[990] 0
x[991] 0
x[992] 0
x[993] 1
x[994] 1
x[995] 0
x[996] 0
x[997] 1
x[998] 0
x[999] 0
